
Value of objective function: 0

Actual values of the variables:
pL1_div_from_law                0
comp_pos0                       0
comp_neg0                       0
comp_pos1                       0
comp_neg1                       0
comp_pos2                       0
comp_neg2                       0
comp_pos3                       0
comp_neg3                       0
comp_pos4                       0
comp_neg4                       0
comp_pos5                       0
comp_neg5                       0
comp_pos6                       0
comp_neg6                       0
comp_pos7                       0
comp_neg7                       0
comp_pos8                       0
comp_neg8                       0
comp_pos9                       0
comp_neg9                       0
comp_pos10                      0
comp_neg10                      0
comp_pos11                      0
comp_neg11                      0
comp_pos12                      0
comp_neg12                      0
comp_pos13                      0
comp_neg13                      0
z_c0_t0               1.32138e+10
p0_c0_t0              3.32903e+09
p1_c0_t0              1.59578e+09
p2_c0_t0              7.84812e+09
p3_c0_t0              4.40916e+08
diff0                           0
normdiff0                       0
z_c0_t1               1.47752e+10
p0_c0_t1              2.92167e+09
p1_c0_t1              1.78953e+09
p2_c0_t1              8.94435e+09
p3_c0_t1              1.11965e+09
diff1                           0
normdiff1                       0
z_c1_t0               1.65566e+10
p0_c1_t0              3.39954e+09
p1_c1_t0              2.07094e+09
p2_c1_t0              1.08929e+10
p3_c1_t0              1.93213e+08
diff2                           0
normdiff2                       0
z_c1_t1               1.94959e+10
p0_c1_t1              3.46032e+09
p1_c1_t1              2.94618e+09
p2_c1_t1              1.25016e+10
p3_c1_t1              5.87829e+08
diff3                           0
normdiff3                       0
z_c2_t0               7.24754e+09
p0_c2_t0               1.1484e+09
p1_c2_t0              8.36711e+08
p2_c2_t0              5.09163e+09
p3_c2_t0              1.70797e+08
diff4                           0
normdiff4                       0
z_c2_t1               7.97123e+09
p0_c2_t1              9.41586e+08
p1_c2_t1              9.78008e+08
p2_c2_t1              5.65316e+09
p3_c2_t1               3.9847e+08
diff5                           0
normdiff5                       0
z_c3_t0               1.22612e+10
p0_c3_t0              2.07773e+09
p1_c3_t0              1.43046e+09
p2_c3_t0              8.31763e+09
p3_c3_t0               4.3536e+08
diff6                           0
normdiff6                       0
z_c3_t1               1.42798e+10
p0_c3_t1              2.37362e+09
p1_c3_t1              1.46496e+09
p2_c3_t1              9.40525e+09
p3_c3_t1              1.03594e+09
diff7                           0
normdiff7                       0
z_c4_t0               7.97197e+09
p0_c4_t0              9.17059e+08
p1_c4_t0              1.60069e+09
p2_c4_t0               5.3171e+09
p3_c4_t0              1.37119e+08
diff8                           0
normdiff8                       0
z_c4_t1                8.9819e+09
p0_c4_t1              9.57762e+08
p1_c4_t1              1.47366e+09
p2_c4_t1              6.38662e+09
p3_c4_t1              1.63858e+08
diff9                           0
normdiff9                       0
z_c5_t0               1.00642e+10
p0_c5_t0               1.6172e+09
p1_c5_t0              1.33725e+09
p2_c5_t0              7.05939e+09
p3_c5_t0              5.03208e+07
diff10                          0
normdiff10                      0
z_c5_t1                1.2016e+10
p0_c5_t1              1.19326e+09
p1_c5_t1              1.33782e+09
p2_c5_t1              9.21525e+09
p3_c5_t1              2.69683e+08
diff11                          0
normdiff11                      0
z_c6_t0               1.81204e+10
p0_c6_t0              2.95288e+09
p1_c6_t0              1.70629e+09
p2_c6_t0              1.32749e+10
p3_c6_t0              1.86327e+08
diff12                          0
normdiff12                      0
z_c6_t1               2.06345e+10
p0_c6_t1               3.2069e+09
p1_c6_t1              1.56395e+09
p2_c6_t1              1.56346e+10
p3_c6_t1              2.29066e+08
diff13                          0
normdiff13                      0
